
Gurobi 9.5.1 (linux64) logging started Thu 21 Jul 2022 01:20:36 PM MST

Set parameter LogFile to value "/home/local/ASUAD/kmajd1/NNRepLayer_v2/demos/walking_example/dynamic_constraint/repair_net/logs/opt_log_7_21_2022_13_13_44.log"
Gurobi Optimizer version 9.5.1 build v9.5.1rc2 (linux64)
Thread count: 48 physical cores, 96 logical processors, using up to 60 threads
Optimize a model with 137492 rows, 102414 columns and 2248126 nonzeros
Model fingerprint: 0xa009b737
Model has 270 quadratic objective terms
Variable types: 67854 continuous, 34560 integer (34560 binary)
Coefficient statistics:
  Matrix range     [3e-05, 2e+02]
  Objective range  [1e-02, 1e+00]
  QObjective range [7e-02, 7e-02]
  Bounds range     [3e-01, 5e+02]
  RHS range        [2e-05, 2e+02]

Concurrent MIP optimizer: 3 concurrent instances (20 threads per instance)

Presolve removed 1191 rows and 1302 columns (presolve time = 5s) ...
Presolve removed 1831 rows and 1302 columns
Presolve time: 8.75s
Presolved: 135661 rows, 101112 columns, 2245045 nonzeros
Presolved model has 270 quadratic objective terms
Variable types: 66563 continuous, 34549 integer (34549 binary)

Root simplex log...

Iteration    Objective       Primal Inf.    Dual Inf.      Time
       0    2.9758405e+01   0.000000e+00   0.000000e+00     16s
   52960    2.9758405e+01   9.410131e+01   0.000000e+00     20s
   56673    2.9758405e+01   0.000000e+00   0.000000e+00     20s

Root relaxation: objective 2.975840e+01, 56673 iterations, 4.75 seconds (2.32 work units)

    Nodes    |    Current Node    |     Objective Bounds      |     Work
 Expl Unexpl |  Obj  Depth IntInf | Incumbent    BestBd   Gap | It/Node Time

     0     0      -    -    -              -   29.75840      -     -   20s
     0     0      -    -    -              -   29.75840      -     -   31s
     0     2      -    -    -              -   29.75840      -     -   84s
     1     4      -    -    -              -   29.75840      -     -   87s
     7    16      -    -    -              -   29.75840      -     -   90s
    31    52      -    -    -              -   29.75840      -     -   95s
    71    92      -    -    -              -   29.75840      -     -  102s
   111   132      -    -    -              -   29.75840      -     -  105s
   171   192      -    -    -              -   29.75840      -     -  112s
   211   232      -    -    -              -   29.75840      -     -  117s
   300   335      -    -    -              -   29.75840      -     -  127s
   334   367      -    -    -              -   29.75840      -     -  134s
   366   401      -    -    -              -   29.75840      -     -  135s
   400   433      -    -    -              -   29.75840      -     -  141s
   545   592      -    -    -              -   29.75840      -     -  145s
   730   775      -    -    -              -   29.75840      -     -  151s
   831   886      -    -    -              -   29.75840      -     -  156s
   975  1022      -    -    -              -   29.75840      -     -  164s
  1021  1081      -    -    -              -   29.75840      -     -  169s
  1080  1138      -    -    -              -   29.75840      -     -  175s
  1137  1201      -    -    -              -   29.75840      -     -  180s
  1349  1420      -    -    -              -   29.75840      -     -  187s
  1480  1570      -    -    -              -   29.75840      -     -  196s
  1569  1648      -    -    -              -   29.75840      -     -  201s
  1647  1749      -    -    -              -   29.75840      -     -  205s
  1849  1946      -    -    -              -   29.75840      -     -  211s
  1945  2066      -    -    -              -   29.75840      -     -  215s
  2194  2325      -    -    -              -   29.75840      -     -  223s
  2324  2449      -    -    -              -   29.75840      -     -  228s
  2448  2564      -    -    -              -   29.75840      -     -  243s
  2563  2692      -    -    -              -   29.75840      -     -  253s
  2691  2867      -    -    -              -   29.75840      -     -  260s
  2868  3037      -    -    -              -   29.75840      -     -  269s
  3040  3215      -    -    -              -   29.75840      -     -  279s
  3228  3408      -    -    -              -   29.75840      -     -  288s
  3425  3606      -    -    -              -   29.75840      -     -  295s
  3623  3790      -    -    -              -   29.75840      -     -  304s
  3811  3975      -    -    -              -   29.75840      -     -  311s
  4000  4133      -    -    -              -   29.75840      -     -  321s
  4158  4357      -    -    -              -   29.75840      -     -  335s
  4382  4609      -    -    -              -   29.75840      -     -  348s
  4634  4881      -    -    -              -   29.75840      -     -  362s
  4906  5062      -    -    -              -   29.75840      -     -  379s
  5087  5344      -    -    -              -   29.75840      -     -  393s
  5369  5697      -    -    -              -   29.75840      -     -  407s
  5724  5840      -    -    -              -   29.75840      -     -  427s
  5869  6185      -    -    -              -   29.75840      -     -  446s
  6218  6549      -    -    -              -   29.75840      -     -  461s
  6586  6995      -    -    -              -   29.75840      -     -  481s
  7036  7436      -    -    -              -   29.75840      -     -  502s
  7483  7915      -    -    -              -   29.75840      -     -  525s
  7964  8220      -    -    -              -   29.75840      -     -  552s
  8271  8863      -    -    -              -   29.75840      -     -  572s
  8920  9583      -    -    -              -   29.75840      -     -  599s
  9640 10338      -    -    -              -   29.75840      -     -  626s
 10397 10897      -    -    -              -   29.75840      -     -  659s
 10956 11718      -    -    -              -   29.75840      -     -  684s
 11778 11719      -    -    -              -   29.75840      -     -  710s
 11779 11720      -    -    -              -   29.75840      -     -  721s
 11780 11720      -    -    -              -   29.75840      -     -  786s
 11782 11722      -    -    -              -   29.75840      -     - 1050s
 11783 11138      -    -    -     1109.18143   29.75840  97.3%     - 1495s
 11785 10586      -    -    -     1109.18143   29.75840  97.3%     - 1623s
 11789 10063      -    -    -     1109.18143   29.75840  97.3%     - 1629s
 11797 10077      -    -    -     1109.18143   29.75840  97.3%     - 1655s
 11813 10091      -    -    -     1109.18143   29.75840  97.3%     - 1661s
 11833 10105      -    -    -     1109.18143   29.75840  97.3%     - 1678s
 11853 10118      -    -    -     1109.18143   29.75840  97.3%     - 1689s
 11873 10131      -    -    -     1109.18143   29.75840  97.3%     - 1714s
 11893  9642      -    -    -      145.71065   29.75840  79.6%     - 1885s
 11913  7886      -    -    -      145.71065   29.75840  79.6%     - 1903s
 11935  7901      -    -    -      145.71065   29.75840  79.6%     - 1931s
 11957  7932      -    -    -      145.71065   29.75840  79.6%     - 1965s
 11996  7947      -    -    -      145.71065   29.75840  79.6%     - 1983s
 12024  7958      -    -    -      145.71065   29.75840  79.6%     - 2057s
 12044  8009      -    -    -      145.71065   29.75840  79.6%     - 2069s
 12102  7621      -    -    -      101.88673   29.75840  70.8%     - 3260s
 12122  6318      -    -    -      101.88673   29.75840  70.8%     - 3299s
 12197  6387      -    -    -      101.88673   29.75840  70.8%     - 3309s
 12291  6456      -    -    -       70.68273   29.75840  57.9%     - 3674s
 12391  6529      -    -    -       70.68273   29.75840  57.9%     - 3717s
 12497  6631      -    -    -       70.68273   29.75840  57.9%     - 3743s
 12635  6729      -    -    -       70.68273   29.75840  57.9%     - 3763s
 12779  6811      -    -    -       70.68273   29.75840  57.9%     - 3781s
 12909  6919      -    -    -       70.68273   29.75840  57.9%     - 3798s
 13060  7005      -    -    -       70.68273   29.75840  57.9%     - 3821s
 13196  6979      -    -    -       70.68273   29.75840  57.9%     - 4110s
 13216  6273      -    -    -       70.68273   29.75840  57.9%     - 4125s
 13374  6383      -    -    -       70.68273   29.75840  57.9%     - 4155s
 13537  6501      -    -    -       70.68273   29.75840  57.9%     - 4172s
 13709  6621      -    -    -       70.68273   29.75840  57.9%     - 4194s
 13887  6750      -    -    -       70.68273   29.75840  57.9%     - 4211s
 14075  6881      -    -    -       70.68273   29.75840  57.9%     - 4228s
 14269  7024      -    -    -       70.68273   29.75840  57.9%     - 4246s
 14476  7155      -    -    -       70.68273   29.75840  57.9%     - 4262s
 14676  7298      -    -    -       70.68273   29.75840  57.9%     - 4282s
 14886  7447      -    -    -       70.68273   29.75840  57.9%     - 4306s
 15105  7589      -    -    -       70.68273   29.75840  57.9%     - 4333s
 15320  7706      -    -    -       70.68273   29.75840  57.9%     - 4360s
 15509  7859      -    -    -       70.68273   29.75840  57.9%     - 4431s
 15725  8016      -    -    -       70.68273   29.75840  57.9%     - 4723s
 15954  7981      -    -    -       70.68273   29.75840  57.9%     - 4753s
 16253  8219      -    -    -       70.68273   29.75840  57.9%     - 4780s
 16591  8466      -    -    -       70.68273   29.75840  57.9%     - 4817s
 16950  8721      -    -    -       70.68273   29.75840  57.9%     - 4862s
 17325  8971      -    -    -       70.68273   29.75840  57.9%     - 4898s
 17700  9219      -    -    -       70.68273   29.75840  57.9%     - 4932s
 18073  9516      -    -    -       70.68273   29.75840  57.9%     - 4963s
 18494  9823      -    -    -       70.68273   29.75840  57.9%     - 5011s
 18942 10132      -    -    -       70.68273   29.75840  57.9%     - 5046s
 19400 10494      -    -    -       70.68273   29.75840  57.9%     - 5076s
 19915 10873      -    -    -       66.86005   29.75840  55.5%     - 5707s
 20469 11313      -    -    -       66.86005   29.75840  55.5%     - 5752s
 21094 11784      -    -    -       66.86005   29.75840  55.5%     - 5803s
 21773 12276      -    -    -       66.86005   29.75840  55.5%     - 5845s
 22492 12789      -    -    -       66.86005   29.75840  55.5%     - 5890s
 23244 14504      -    -    -       62.23029   29.75840  52.2%     - 6077s
 25224 14614      -    -    -       62.23029   29.75840  52.2%     - 6129s
 26010 15038      -    -    -       62.23029   29.75840  52.2%     - 6197s
 26714 15633      -    -    -       62.23029   29.75840  52.2%     - 6272s
 27466 16425      -    -    -       62.23029   29.75840  52.2%     - 6324s
 28264 17174      -    -    -       62.23029   29.75840  52.2%     - 6369s
 29028 17193      -    -    -       62.23029   29.75840  52.2%     - 6715s
 29049 17980      -    -    -       62.23029   29.75840  52.2%     - 6764s
 29579 17980      -    -    -       62.23029   29.75840  52.2%     - 6765s
 29836 18782      -    -    -       60.82139   29.75840  51.1%     - 7062s
 30638 19649      -    -    -       60.82139   29.75840  51.1%     - 7114s
 31505 20552      -    -    -       60.63830   29.75840  50.9%     - 7208s
 32410 21482      -    -    -       60.63830   29.75840  50.9%     - 7277s
 33340 22435      -    -    -       60.63830   29.75840  50.9%     - 8170s
 34295 23555      -    -    -       60.63830   29.75840  50.9%     - 8244s
 35423 24629      -    -    -       60.63830   29.75840  50.9%     - 8339s
 36497 25758      -    -    -       60.63830   29.75840  50.9%     - 8572s
 37626 26959      -    -    -       60.63830   29.75840  50.9%     - 8892s
 38827 28058      -    -    -       60.63830   29.75840  50.9%     - 9009s
 39926 29374      -    -    -       60.63830   29.75840  50.9%     - 9073s
 41246 30867      -    -    -       60.63830   29.75840  50.9%     - 9349s
 41386 30867      -    -    -       60.63830   29.75840  50.9%     - 9350s
 42739 32416      -    -    -       60.59238   29.75840  50.9%     - 10029s
 44291 33980      -    -    -       60.59238   29.75840  50.9%     - 10163s
 45871 35462      -    -    -       60.59238   29.75840  50.9%     - 10263s
 47369 37657      -    -    -       60.59238   29.75840  50.9%     - 10487s
 49602 39294      -    -    -       60.59238   29.75840  50.9%     - 10628s
 51290 40846      -    -    -       60.59238   29.75840  50.9%     - 10875s
 52912 42336      -    -    -       60.59238   29.75840  50.9%     - 11041s
 54577 42350      -    -    -       60.59238   29.75840  50.9%     - 11272s
 54645 43784      -    -    -       60.59238   29.75840  50.9%     - 11445s
 56672 45903      -    -    -       60.59238   29.75840  50.9%     - 11651s
 58856 47031      -    -    -       60.56697   29.76392  50.9%     - 12878s
 60041 48762      -    -    -       60.56697   29.76392  50.9%     - 13339s
 60331 48762      -    -    -       60.56697   29.76392  50.9%     - 13340s
 61900 50674      -    -    -       60.56697   29.76392  50.9%     - 13498s
 63895 52803      -    -    -       57.27237   29.76392  48.0%     - 13755s
 66166 54696      -    -    -       57.27237   29.76392  48.0%     - 13985s
 68220 56468      -    -    -       57.11934   29.76392  47.9%     - 14246s
 70064 58362      -    -    -       57.11934   29.76392  47.9%     - 14750s
 72030 60668      -    -    -       57.11934   29.76392  47.9%     - 15047s
 74431 62587      -    -    -       57.11934   29.76392  47.9%     - 15284s
 76454 62753      -    -    -       57.11934   29.76392  47.9%     - 15510s
 76622 63985      -    -    -       54.24492   29.76392  45.1%     - 15670s
 78819 65832      -    -    -       54.24227   29.76392  45.1%     - 15876s
 80715 67868      -    -    -       54.24227   29.76392  45.1%     - 16132s
 82801 70095      -    -    -       54.24227   29.76392  45.1%     - 16372s
 85030 72355      -    -    -       54.24227   29.76392  45.1%     - 16596s
 87292 74494      -    -    -       54.24227   29.76392  45.1%     - 16908s
 89433 76564      -    -    -       54.24227   29.76392  45.1%     - 17390s
 91505 78516      -    -    -       54.24227   29.76392  45.1%     - 17632s
 93502 80352      -    -    -       54.24227   29.76392  45.1%     - 17895s
 95369 80441      -    -    -       54.24227   29.76392  45.1%     - 20215s
 95513 56101      -    -    -       54.24227   29.76392  45.1%     - 21118s
 98153 56405      -    -    -       54.20380   29.76392  45.1%     - 21375s
 98595 58695      -    -    -       54.20380   29.76392  45.1%     - 21878s
 101111 60809      -    -    -       54.20380   29.76392  45.1%     - 22224s
 103335 63012      -    -    -       54.20380   29.76392  45.1%     - 22919s
 105571 65234      -    -    -       54.20380   29.76392  45.1%     - 23388s
 107799 67271      -    -    -       54.20380   29.76392  45.1%     - 23576s
 109906 69091      -    -    -       54.20380   29.76392  45.1%     - 24768s
 111739 71105      -    -    -       54.20380   29.76392  45.1%     - 25045s
 113757 73236      -    -    -       54.20380   29.76392  45.1%     - 25246s
 115892 75276      -    -    -       54.20380   29.76392  45.1%     - 25444s
 117938 76499      -    -    -       54.20380   29.76392  45.1%     - 26286s
 119168 72642      -    -    -       54.20380   29.76392  45.1%     - 26530s
 119188 75225      -    -    -       54.20380   29.76392  45.1%     - 27027s
 121828 77458      -    -    -       54.20380   29.76392  45.1%     - 27288s
 124373 79709      -    -    -       53.85688   29.76392  44.7%     - 27483s
 126773 81819      -    -    -       53.85688   29.76392  44.7%     - 27756s
 128909 83673      -    -    -       53.85688   29.76392  44.7%     - 27961s
 130899 85395      -    -    -       53.85625   29.76392  44.7%     - 28191s
 132660 87288      -    -    -       53.85625   29.76392  44.7%     - 28394s
 134621 89009      -    -    -       53.85625   29.76392  44.7%     - 28747s
 136409 90604      -    -    -       53.85625   29.76392  44.7%     - 28910s
 138060 92465      -    -    -       53.85625   29.76392  44.7%     - 29075s
 139938 94205      -    -    -       53.85625   29.76392  44.7%     - 29257s
 141756 95966      -    -    -       53.85625   29.76392  44.7%     - 29553s
 143618 97219      -    -    -       53.85625   29.76392  44.7%     - 29842s
 145041 98870      -    -    -       53.85625   29.76392  44.7%     - 30265s
 146938 99832      -    -    -       53.85625   29.76392  44.7%     - 31597s
 147999 95219      -    -    -       53.85625   29.76392  44.7%     - 32056s
 150079 91083      -    -    -       53.85625   29.76392  44.7%     - 32311s
 152530 93382      -    -    -       53.85625   29.76392  44.7%     - 32563s
 155004 95577      -    -    -       53.85625   29.76392  44.7%     - 32834s
 155532 95577      -    -    -       53.85625   29.76392  44.7%     - 32835s
 157327 95637      -    -    -       53.85625   29.76392  44.7%     - 33052s
 157387 97739      -    -    -       53.85625   29.76392  44.7%     - 33268s
 159633 99866      -    -    -       53.85625   29.76392  44.7%     - 33437s
 161985 102187      -    -    -       53.85625   29.76392  44.7%     - 33607s
 164365 104398      -    -    -       53.85619   29.76392  44.7%     - 33804s
 166636 106564      -    -    -       53.85619   29.76392  44.7%     - 33984s
 168926 108089      -    -    -       53.85619   29.76392  44.7%     - 34159s
 170621 110042      -    -    -       53.85619   29.76392  44.7%     - 34305s
 172749 110165      -    -    -       53.85619   29.76392  44.7%     - 34508s
 172872 112276      -    -    -       53.85619   29.76392  44.7%     - 34672s
 175117 114304      -    -    -       53.85619   29.76392  44.7%     - 34779s
 177195 115929      -    -    -       53.85619   29.76392  44.7%     - 34903s
 179030 117738      -    -    -       53.85619   29.76392  44.7%     - 35088s
 180929 119614      -    -    -       53.85619   29.76392  44.7%     - 35228s
 182832 121614      -    -    -       53.85619   29.76392  44.7%     - 35378s
 184866 123622      -    -    -       53.85619   29.76392  44.7%     - 35493s
 186917 125763      -    -    -       53.75922   29.76392  44.6%     - 35580s
 189123 127775      -    -    -       53.75922   29.76392  44.6%     - 35677s
 191182 130100      -    -    -       53.75922   29.76392  44.6%     - 35911s
 193585 132077      -    -    -       53.75922   29.76392  44.6%     - 36041s
 195610 134204      -    -    -       53.75922   29.76392  44.6%     - 36157s
 197835 136419      -    -    -       53.75922   29.76392  44.6%     - 36303s
 200130 138367      -    -    -       53.75922   29.76392  44.6%     - 36405s
 202215 139756      -    -    -       53.75922   29.76392  44.6%     - 36543s
 203663 141753      -    -    -       53.75922   29.76392  44.6%     - 36710s
 205798 143647      -    -    -       53.75922   29.76392  44.6%     - 36831s
 207818 145739      -    -    -       53.75922   29.76392  44.6%     - 37014s
 209950 147720      -    -    -       53.75922   29.76392  44.6%     - 37139s
 211971 149518      -    -    -       53.75922   29.76392  44.6%     - 37234s
 213781 151594      -    -    -       53.75922   29.76392  44.6%     - 37350s
 215986 153956      -    -    -       53.75922   29.76392  44.6%     - 37547s
 218493 155872      -    -    -       53.75922   29.76392  44.6%     - 37660s
 220497 157763      -    -    -       53.75922   29.76392  44.6%     - 37814s
 222503 159503      -    -    -       53.75922   29.76392  44.6%     - 37921s
 224357 161542      -    -    -       53.75922   29.76392  44.6%     - 38066s
 226505 163427      -    -    -       53.75922   29.76392  44.6%     - 38171s
 228458 165429      -    -    -       53.75922   29.76392  44.6%     - 38281s
 230492 167232      -    -    -       53.75922   29.76392  44.6%     - 38455s
 232353 169032      -    -    -       53.75922   29.76392  44.6%     - 38557s
 234173 170934      -    -    -       53.75922   29.76392  44.6%     - 38666s
 236127 172789      -    -    -       53.75922   29.76392  44.6%     - 38771s
 238079 174750      -    -    -       53.75922   29.76392  44.6%     - 38857s
 240096 177082      -    -    -       53.75922   29.76392  44.6%     - 38999s
 242541 178957      -    -    -       53.75922   29.76392  44.6%     - 39089s

Resetting heuristic parameters to focus on improving solution
(using Heuristics=0.5 and RINS=10)...

 244644 180768      -    -    -       53.75922   29.76392  44.6%     - 39263s
 246831 178047      -    -    -       53.75922   29.76392  44.6%     - 39377s
 246871 180096      -    -    -       53.27774   29.76392  44.1%     - 39490s
 249329 180114      -    -    -       53.22564   29.76392  44.1%     - 39653s
 249359 180159      -    -    -       53.22564   29.76392  44.1%     - 39782s
 249438 180204      -    -    -       53.22564   29.76392  44.1%     - 39963s
 249573 179465      -    -    -       53.22564   29.76392  44.1%     - 40293s
 249623 179722      -    -    -       53.22564   29.76392  44.1%     - 40642s
 249946 179609      -    -    -       53.22564   29.76392  44.1%     - 41009s
 249973 179782      -    -    -       53.22564   29.76392  44.1%     - 41292s
 250185 179793      -    -    -       53.22564   29.76392  44.1%     - 41619s
 250200 179793      -    -    -       53.22564   29.76392  44.1%     - 41620s
 250212 181395      -    -    -       53.22564   29.76392  44.1%     - 41932s
 252524 180744      -    -    -       53.22564   29.76392  44.1%     - 42260s
 252574 181193      -    -    -       53.22564   29.76392  44.1%     - 42590s
 253112 180436      -    -    -       53.22564   29.76392  44.1%     - 42961s
 253143 180850      -    -    -       53.22564   29.76392  44.1%     - 43200s

Instance 2 was solved

Explored 219625 nodes (191773544 simplex iterations) in 43209.32 seconds (37892.38 work units)
Thread count was 20 (of 96 available processors)

Solution count 10: 53.2256 53.2256 53.2256 ... 53.74 

Time limit reached
Best objective 5.322564095400e+01, best bound 2.976391640322e+01, gap 44.0797%
